/*********************************************
    * Lab01 - FCR
    * Author: Coso
    * Creation Date: Mar, 2019
    *********************************************/
instance_name = "medium_instance_24_FCR";

d = 5;
r = 15;

SCj = [172 178 146 139 159];
Dk = [22 22 90 94 66 24 55 18 10 77 69 21 14 95 93];

Cjk = [[67 70 83 37 77 60 73 43 54 55 41 66 73 41 63]
 [82 42 76 79 55 61 31 41 35 85 36 65 45 66 83]
 [56 54 69 56 36 72 41 67 62 52 39 31 64 35 79]
 [54 57 79 71 61 35 73 69 37 46 88 85 50 87 32]
 [68 74 39 76 60 39 49 84 65 39 85 85 43 36 79]];
Fjk = [[550 354 472 660 718 823 434 853 468 728 298 367 712 826 639]
 [643 590 513 674 738 583 582 872 570 461 868 702 375 473 668]
 [316 323 425 360 374 600 508 622 480 568 329 678 533 791 418]
 [393 618 393 843 866 332 727 620 691 432 313 668 623 652 766]
 [335 693 718 859 588 585 726 770 886 855 364 657 392 503 433]];
